certificates/rado_a14_c50_N61.cnf
c Rad2 upper bound instance: x1 + 14*x2 - x3 = 50, interval [1,61]
p cnf 61 506
1 4 7 0
-1 -4 -7 0
1 5 21 0
-1 -5 -21 0
1 6 35 0
-1 -6 -35 0
1 7 49 0
-1 -7 -49 0
2 4 8 0
-2 -4 -8 0
2 5 22 0
-2 -5 -22 0
2 6 36 0
-2 -6 -36 0
2 7 50 0
-2 -7 -50 0
3 4 9 0
-3 -4 -9 0
3 5 23 0
-3 -5 -23 0
3 6 37 0
-3 -6 -37 0
3 7 51 0
-3 -7 -51 0
4 10 0
-4 -10 0
4 5 24 0
-4 -5 -24 0
4 6 38 0
-4 -6 -38 0
4 7 52 0
-4 -7 -52 0
4 5 11 0
-4 -5 -11 0
5 25 0
-5 -25 0
5 6 39 0
-5 -6 -39 0
5 7 53 0
-5 -7 -53 0
4 6 12 0
-4 -6 -12 0
5 6 26 0
-5 -6 -26 0
6 40 0
-6 -40 0
6 7 54 0
-6 -7 -54 0
4 7 13 0
-4 -7 -13 0
5 7 27 0
-5 -7 -27 0
6 7 41 0
-6 -7 -41 0
7 55 0
-7 -55 0
4 8 14 0
-4 -8 -14 0
5 8 28 0
-5 -8 -28 0
6 8 42 0
-6 -8 -42 0
7 8 56 0
-7 -8 -56 0
1 3 9 0
-1 -3 -9 0
4 9 15 0
-4 -9 -15 0
5 9 29 0
-5 -9 -29 0
6 9 43 0
-6 -9 -43 0
7 9 57 0
-7 -9 -57 0
2 3 10 0
-2 -3 -10 0
4 10 16 0
-4 -10 -16 0
5 10 30 0
-5 -10 -30 0
6 10 44 0
-6 -10 -44 0
7 10 58 0
-7 -10 -58 0
3 11 0
-3 -11 0
4 11 17 0
-4 -11 -17 0
5 11 31 0
-5 -11 -31 0
6 11 45 0
-6 -11 -45 0
7 11 59 0
-7 -11 -59 0
3 4 12 0
-3 -4 -12 0
4 12 18 0
-4 -12 -18 0
5 12 32 0
-5 -12 -32 0
6 12 46 0
-6 -12 -46 0
7 12 60 0
-7 -12 -60 0
3 5 13 0
-3 -5 -13 0
4 13 19 0
-4 -13 -19 0
5 13 33 0
-5 -13 -33 0
6 13 47 0
-6 -13 -47 0
7 13 61 0
-7 -13 -61 0
3 6 14 0
-3 -6 -14 0
4 14 20 0
-4 -14 -20 0
5 14 34 0
-5 -14 -34 0
6 14 48 0
-6 -14 -48 0
3 7 15 0
-3 -7 -15 0
4 15 21 0
-4 -15 -21 0
5 15 35 0
-5 -15 -35 0
6 15 49 0
-6 -15 -49 0
3 8 16 0
-3 -8 -16 0
4 16 22 0
-4 -16 -22 0
5 16 36 0
-5 -16 -36 0
6 16 50 0
-6 -16 -50 0
3 9 17 0
-3 -9 -17 0
4 17 23 0
-4 -17 -23 0
5 17 37 0
-5 -17 -37 0
6 17 51 0
-6 -17 -51 0
3 10 18 0
-3 -10 -18 0
4 18 24 0
-4 -18 -24 0
5 18 38 0
-5 -18 -38 0
6 18 52 0
-6 -18 -52 0
3 11 19 0
-3 -11 -19 0
4 19 25 0
-4 -19 -25 0
5 19 39 0
-5 -19 -39 0
6 19 53 0
-6 -19 -53 0
3 12 20 0
-3 -12 -20 0
4 20 26 0
-4 -20 -26 0
5 20 40 0
-5 -20 -40 0
6 20 54 0
-6 -20 -54 0
3 13 21 0
-3 -13 -21 0
4 21 27 0
-4 -21 -27 0
5 21 41 0
-5 -21 -41 0
6 21 55 0
-6 -21 -55 0
3 14 22 0
-3 -14 -22 0
4 22 28 0
-4 -22 -28 0
5 22 42 0
-5 -22 -42 0
6 22 56 0
-6 -22 -56 0
1 2 23 0
-1 -2 -23 0
3 15 23 0
-3 -15 -23 0
4 23 29 0
-4 -23 -29 0
5 23 43 0
-5 -23 -43 0
6 23 57 0
-6 -23 -57 0
2 24 0
-2 -24 0
3 16 24 0
-3 -16 -24 0
4 24 30 0
-4 -24 -30 0
5 24 44 0
-5 -24 -44 0
6 24 58 0
-6 -24 -58 0
2 3 25 0
-2 -3 -25 0
3 17 25 0
-3 -17 -25 0
4 25 31 0
-4 -25 -31 0
5 25 45 0
-5 -25 -45 0
6 25 59 0
-6 -25 -59 0
2 4 26 0
-2 -4 -26 0
3 18 26 0
-3 -18 -26 0
4 26 32 0
-4 -26 -32 0
5 26 46 0
-5 -26 -46 0
6 26 60 0
-6 -26 -60 0
2 5 27 0
-2 -5 -27 0
3 19 27 0
-3 -19 -27 0
4 27 33 0
-4 -27 -33 0
5 27 47 0
-5 -27 -47 0
6 27 61 0
-6 -27 -61 0
2 6 28 0
-2 -6 -28 0
3 20 28 0
-3 -20 -28 0
4 28 34 0
-4 -28 -34 0
5 28 48 0
-5 -28 -48 0
2 7 29 0
-2 -7 -29 0
3 21 29 0
-3 -21 -29 0
4 29 35 0
-4 -29 -35 0
5 29 49 0
-5 -29 -49 0
2 8 30 0
-2 -8 -30 0
3 22 30 0
-3 -22 -30 0
4 30 36 0
-4 -30 -36 0
5 30 50 0
-5 -30 -50 0
2 9 31 0
-2 -9 -31 0
3 23 31 0
-3 -23 -31 0
4 31 37 0
-4 -31 -37 0
5 31 51 0
-5 -31 -51 0
2 10 32 0
-2 -10 -32 0
3 24 32 0
-3 -24 -32 0
4 32 38 0
-4 -32 -38 0
5 32 52 0
-5 -32 -52 0
2 11 33 0
-2 -11 -33 0
3 25 33 0
-3 -25 -33 0
4 33 39 0
-4 -33 -39 0
5 33 53 0
-5 -33 -53 0
2 12 34 0
-2 -12 -34 0
3 26 34 0
-3 -26 -34 0
4 34 40 0
-4 -34 -40 0
5 34 54 0
-5 -34 -54 0
2 13 35 0
-2 -13 -35 0
3 27 35 0
-3 -27 -35 0
4 35 41 0
-4 -35 -41 0
5 35 55 0
-5 -35 -55 0
2 14 36 0
-2 -14 -36 0
3 28 36 0
-3 -28 -36 0
4 36 42 0
-4 -36 -42 0
5 36 56 0
-5 -36 -56 0
1 37 0
-1 -37 0
2 15 37 0
-2 -15 -37 0
3 29 37 0
-3 -29 -37 0
4 37 43 0
-4 -37 -43 0
5 37 57 0
-5 -37 -57 0
1 2 38 0
-1 -2 -38 0
2 16 38 0
-2 -16 -38 0
3 30 38 0
-3 -30 -38 0
4 38 44 0
-4 -38 -44 0
5 38 58 0
-5 -38 -58 0
1 3 39 0
-1 -3 -39 0
2 17 39 0
-2 -17 -39 0
3 31 39 0
-3 -31 -39 0
4 39 45 0
-4 -39 -45 0
5 39 59 0
-5 -39 -59 0
1 4 40 0
-1 -4 -40 0
2 18 40 0
-2 -18 -40 0
3 32 40 0
-3 -32 -40 0
4 40 46 0
-4 -40 -46 0
5 40 60 0
-5 -40 -60 0
1 5 41 0
-1 -5 -41 0
2 19 41 0
-2 -19 -41 0
3 33 41 0
-3 -33 -41 0
4 41 47 0
-4 -41 -47 0
5 41 61 0
-5 -41 -61 0
1 6 42 0
-1 -6 -42 0
2 20 42 0
-2 -20 -42 0
3 34 42 0
-3 -34 -42 0
4 42 48 0
-4 -42 -48 0
1 7 43 0
-1 -7 -43 0
2 21 43 0
-2 -21 -43 0
3 35 43 0
-3 -35 -43 0
4 43 49 0
-4 -43 -49 0
1 8 44 0
-1 -8 -44 0
2 22 44 0
-2 -22 -44 0
3 36 44 0
-3 -36 -44 0
4 44 50 0
-4 -44 -50 0
1 9 45 0
-1 -9 -45 0
2 23 45 0
-2 -23 -45 0
3 37 45 0
-3 -37 -45 0
4 45 51 0
-4 -45 -51 0
1 10 46 0
-1 -10 -46 0
2 24 46 0
-2 -24 -46 0
3 38 46 0
-3 -38 -46 0
4 46 52 0
-4 -46 -52 0
1 11 47 0
-1 -11 -47 0
2 25 47 0
-2 -25 -47 0
3 39 47 0
-3 -39 -47 0
4 47 53 0
-4 -47 -53 0
1 12 48 0
-1 -12 -48 0
2 26 48 0
-2 -26 -48 0
3 40 48 0
-3 -40 -48 0
4 48 54 0
-4 -48 -54 0
1 13 49 0
-1 -13 -49 0
2 27 49 0
-2 -27 -49 0
3 41 49 0
-3 -41 -49 0
4 49 55 0
-4 -49 -55 0
1 14 50 0
-1 -14 -50 0
2 28 50 0
-2 -28 -50 0
3 42 50 0
-3 -42 -50 0
4 50 56 0
-4 -50 -56 0
1 15 51 0
-1 -15 -51 0
2 29 51 0
-2 -29 -51 0
3 43 51 0
-3 -43 -51 0
4 51 57 0
-4 -51 -57 0
1 16 52 0
-1 -16 -52 0
2 30 52 0
-2 -30 -52 0
3 44 52 0
-3 -44 -52 0
4 52 58 0
-4 -52 -58 0
1 17 53 0
-1 -17 -53 0
2 31 53 0
-2 -31 -53 0
3 45 53 0
-3 -45 -53 0
4 53 59 0
-4 -53 -59 0
1 18 54 0
-1 -18 -54 0
2 32 54 0
-2 -32 -54 0
3 46 54 0
-3 -46 -54 0
4 54 60 0
-4 -54 -60 0
1 19 55 0
-1 -19 -55 0
2 33 55 0
-2 -33 -55 0
3 47 55 0
-3 -47 -55 0
4 55 61 0
-4 -55 -61 0
1 20 56 0
-1 -20 -56 0
2 34 56 0
-2 -34 -56 0
3 48 56 0
-3 -48 -56 0
1 21 57 0
-1 -21 -57 0
2 35 57 0
-2 -35 -57 0
3 49 57 0
-3 -49 -57 0
1 22 58 0
-1 -22 -58 0
2 36 58 0
-2 -36 -58 0
3 50 58 0
-3 -50 -58 0
1 23 59 0
-1 -23 -59 0
2 37 59 0
-2 -37 -59 0
3 51 59 0
-3 -51 -59 0
1 24 60 0
-1 -24 -60 0
2 38 60 0
-2 -38 -60 0
3 52 60 0
-3 -52 -60 0
1 25 61 0
-1 -25 -61 0
2 39 61 0
-2 -39 -61 0
3 53 61 0
-3 -53 -61 0
