certificates/rado_a14_c50_N61.drat
-55 -61 0
-1 -7 0
4 12 0
12 -7 0
-4 -7 0
-7 -61 0
d -13 -7 -61 0
-61 0
-7 0
55 0
13 0
4 0
-10 0
-49 0
-19 0
58 0
1 0
-22 0
-52 0
-37 0
-40 0
6 0
-35 0
-38 0
-12 0
-47 0
-21 0
-24 0
-42 0
60 0
2 0
5 0
-54 0
-26 0
-23 0
-8 0
-36 0
-33 0
-28 0
-11 0
-25 0
-3 0
-27 0
-41 0
-39 0
34 0
18 0
56 0
44 0
0
